cases/pglib-opf/pglib_opf_case24_ieee_rts.m
ipopt
ACR
[info | PowerModels]: extending matpower format with data: areas 4x3
[info | PowerModels]: removing 1 cost terms from generator 1: [13000.0, 400.6849]
[info | PowerModels]: removing 1 cost terms from generator 29: [0.1, 0.001]
[info | PowerModels]: removing 1 cost terms from generator 2: [13000.0, 400.6849]
[info | PowerModels]: removing 1 cost terms from generator 6: [13000.0, 400.6849]
[info | PowerModels]: removing 1 cost terms from generator 25: [0.1, 0.001]
[info | PowerModels]: removing 1 cost terms from generator 5: [13000.0, 400.6849]
[info | PowerModels]: removing 3 cost terms from generator 15: Float64[]
[info | PowerModels]: removing 1 cost terms from generator 27: [0.1, 0.001]
[info | PowerModels]: removing 1 cost terms from generator 28: [0.1, 0.001]
[info | PowerModels]: removing 1 cost terms from generator 26: [0.1, 0.001]
[info | PowerModels]: removing 1 cost terms from generator 30: [0.1, 0.001]

******************************************************************************
This program contains Ipopt, a library for large-scale nonlinear optimization.
 Ipopt is released as open source code under the Eclipse Public License (EPL).
         For more information visit http://projects.coin-or.org/Ipopt
******************************************************************************

This is Ipopt version 3.13.2, running with linear solver mumps.
NOTE: Other linear solvers might be more efficient (see Ipopt documentation).

Number of nonzeros in equality constraint Jacobian...:     1892
Number of nonzeros in inequality constraint Jacobian.:      792
Number of nonzeros in Lagrangian Hessian.............:     1456

Total number of variables............................:      265
                     variables with only lower bounds:        0
                variables with lower and upper bounds:      265
                     variables with only upper bounds:        0
Total number of equality constraints.................:      201
Total number of inequality constraints...............:      192
        inequality constraints with only lower bounds:       58
   inequality constraints with lower and upper bounds:        0
        inequality constraints with only upper bounds:      134

iter    objective    inf_pr   inf_du lg(mu)  ||d||  lg(rg) alpha_du alpha_pr  ls
   0  4.0097983e+04 2.52e+00 4.56e+01  -1.0 0.00e+00    -  0.00e+00 0.00e+00   0
   1  5.6174922e+04 1.56e+00 6.27e+01  -1.0 2.38e+00    -  1.00e-02 3.80e-01h  1
   2  5.3179649e+04 1.35e+00 5.42e+01  -1.0 6.41e+00    -  1.34e-02 1.39e-01f  1
   3  5.2213903e+04 1.33e+00 5.02e+01  -1.0 8.85e+00    -  3.43e-01 1.34e-02f  1
   4  5.3176847e+04 1.06e+00 3.74e+01  -1.0 7.58e+00    -  7.33e-01 2.01e-01h  1
   5  5.5179342e+04 3.87e-01 1.31e+01  -1.0 9.47e+00    -  9.73e-01 6.35e-01H  1
   6  5.4966971e+04 3.18e-01 1.20e+01  -1.0 1.04e+01    -  4.75e-01 1.79e-01f  1
   7  5.5378689e+04 2.73e-01 1.12e+01  -1.0 7.24e+00    -  1.00e+00 1.41e-01h  1
   8  5.5972634e+04 2.33e-01 6.50e+00  -1.0 2.99e+00    -  2.57e-01 1.47e-01h  1
   9  6.2359172e+04 2.53e-01 5.65e+00  -1.0 1.40e+00    -  6.90e-01 8.74e-01h  1
iter    objective    inf_pr   inf_du lg(mu)  ||d||  lg(rg) alpha_du alpha_pr  ls
  10  6.3824845e+04 6.75e-04 9.56e-01  -1.0 1.79e+00    -  7.33e-01 1.00e+00h  1
  11  6.3533383e+04 1.26e-03 8.40e-01  -1.7 1.65e-01    -  7.74e-01 1.00e+00f  1
  12  6.3478249e+04 6.23e-04 1.07e-02  -1.7 9.16e-02    -  1.00e+00 1.00e+00h  1
  13  6.3385516e+04 8.81e-04 1.65e-02  -3.8 1.49e-01    -  7.07e-01 7.19e-01f  1
  14  6.3367334e+04 5.74e-04 9.34e-01  -3.8 1.98e-01    -  8.44e-01 4.24e-01h  1
  15  6.3355838e+04 2.09e-04 6.23e-01  -3.8 3.01e-01    -  8.97e-01 7.51e-01h  1
  16  6.3353018e+04 2.67e-05 9.31e-02  -3.8 8.45e-02    -  1.00e+00 9.22e-01h  1
  17  6.3352943e+04 6.73e-07 1.41e-05  -3.8 6.91e-03    -  1.00e+00 1.00e+00h  1
  18  6.3352219e+04 3.30e-07 4.50e-04  -5.7 8.98e-03    -  9.90e-01 9.87e-01h  1
  19  6.3352210e+04 1.11e-09 2.58e-08  -5.7 1.38e-04    -  1.00e+00 1.00e+00h  1
iter    objective    inf_pr   inf_du lg(mu)  ||d||  lg(rg) alpha_du alpha_pr  ls
  20  6.3352201e+04 5.65e-11 1.10e-09  -8.6 1.07e-04    -  1.00e+00 1.00e+00h  1

Number of Iterations....: 20

                                   (scaled)                 (unscaled)
Objective...............:   4.8732462391675961e+02    6.3352201109178743e+04
Dual infeasibility......:   1.1037060602919641e-09    1.4348178783795533e-07
Constraint violation....:   5.6541743509441744e-11    5.6541743509441744e-11
Complementarity.........:   3.8681681105481940e-09    5.0286185437126523e-07
Overall NLP error.......:   3.8681681105481940e-09    5.0286185437126523e-07


Number of objective function evaluations             = 22
Number of objective gradient evaluations             = 21
Number of equality constraint evaluations            = 22
Number of inequality constraint evaluations          = 22
Number of equality constraint Jacobian evaluations   = 21
Number of inequality constraint Jacobian evaluations = 21
Number of Lagrangian Hessian evaluations             = 20
Total CPU secs in IPOPT (w/o function evaluations)   =      0.288
Total CPU secs in NLP function evaluations           =      0.208

EXIT: Optimal Solution Found.
Time to Solution........:1.1848959922790527
